70 70
40 21
70 35
55 26
30 8
54 4
22 26
16 23
56 6
1 3
67 9
5 23
47 33
52 29
29 2
14 13
46 27
18 10
58 6
26 33
33 24
49 10
34 25
57 31
64 30
51 31
17 28
4 19
66 17
37 19
35 16
8 17
24 14
13 16
25 22
12 11
59 5
68 30
63 8
21 13
15 2
38 32
44 18
7 32
50 1
42 28
20 7
19 20
39 34
3 15
27 12
23 9
45 15
2 25
31 11
60 20
53 14
62 27
69 35
65 18
6 5
36 1
10 12
43 21
41 7
32 3
9 4
28 22
48 24
11 34
61 29
